NAME: cuum230.tsp
TYPE: TSP
COMMENT: User-generated TSP file
DIMENSION: 230
EDGE_WEIGHT_TYPE: EUC_2D
NODE_COORD_SECTION
1 203.0 63.0
2 110.0 44.0
3 98.0 185.0
4 214.0 172.0
5 86.0 131.0
6 53.0 42.0
7 22.0 148.0
8 220.0 198.0
9 70.0 49.0
10 168.0 63.0
11 94.0 21.0
12 163.0 179.0
13 95.0 25.0
14 229.0 67.0
15 51.0 66.0
16 114.0 215.0
17 164.0 230.0
18 4.0 153.0
19 33.0 80.0
20 142.0 179.0
21 201.0 32.0
22 67.0 49.0
23 101.0 67.0
24 154.0 36.0
25 228.0 200.0
26 116.0 76.0
27 52.0 11.0
28 212.0 11.0
29 200.0 225.0
30 206.0 87.0
31 213.0 144.0
32 145.0 150.0
33 43.0 40.0
34 204.0 155.0
35 223.0 191.0
36 216.0 134.0
37 130.0 2.0
38 97.0 83.0
39 59.0 96.0
40 96.0 44.0
41 53.0 176.0
42 83.0 150.0
43 115.0 176.0
44 74.0 56.0
45 193.0 131.0
46 14.0 131.0
47 220.0 107.0
48 137.0 183.0
49 43.0 55.0
50 222.0 150.0
51 153.0 42.0
52 194.0 155.0
53 211.0 40.0
54 13.0 208.0
55 162.0 94.0
56 49.0 33.0
57 223.0 186.0
58 35.0 2.0
59 171.0 195.0
60 208.0 15.0
61 196.0 43.0
62 181.0 168.0
63 79.0 14.0
64 149.0 143.0
65 229.0 216.0
66 63.0 152.0
67 67.0 6.0
68 229.0 217.0
69 117.0 158.0
70 80.0 34.0
71 152.0 183.0
72 59.0 124.0
73 178.0 110.0
74 1.0 19.0
75 33.0 118.0
76 209.0 78.0
77 28.0 89.0
78 85.0 75.0
79 143.0 39.0
80 45.0 20.0
81 108.0 176.0
82 110.0 47.0
83 47.0 201.0
84 137.0 107.0
85 156.0 14.0
86 229.0 133.0
87 110.0 6.0
88 162.0 161.0
89 227.0 90.0
90 138.0 28.0
91 206.0 172.0
92 11.0 221.0
93 228.0 189.0
94 134.0 147.0
95 33.0 181.0
96 82.0 127.0
97 132.0 115.0
98 57.0 112.0
99 105.0 161.0
100 113.0 187.0
101 35.0 23.0
102 128.0 108.0
103 24.0 43.0
104 134.0 78.0
105 85.0 82.0
106 180.0 72.0
107 166.0 154.0
108 101.0 109.0
109 177.0 225.0
110 136.0 135.0
111 59.0 93.0
112 108.0 40.0
113 43.0 177.0
114 49.0 10.0
115 50.0 24.0
116 2.0 106.0
117 111.0 167.0
118 178.0 182.0
119 184.0 35.0
120 159.0 155.0
121 36.0 112.0
122 11.0 183.0
123 155.0 67.0
124 194.0 85.0
125 140.0 64.0
126 210.0 39.0
127 4.0 57.0
128 217.0 9.0
129 207.0 178.0
130 75.0 166.0
131 14.0 167.0
132 157.0 128.0
133 200.0 207.0
134 88.0 9.0
135 9.0 30.0
136 187.0 226.0
137 56.0 16.0
138 212.0 92.0
139 152.0 61.0
140 84.0 10.0
141 205.0 171.0
142 111.0 2.0
143 75.0 119.0
144 106.0 101.0
145 38.0 26.0
146 82.0 159.0
147 91.0 8.0
148 78.0 204.0
149 187.0 194.0
150 192.0 24.0
151 49.0 70.0
152 66.0 226.0
153 149.0 189.0
154 65.0 106.0
155 53.0 68.0
156 149.0 57.0
157 90.0 149.0
158 41.0 149.0
159 218.0 59.0
160 123.0 215.0
161 44.0 212.0
162 98.0 52.0
163 151.0 2.0
164 61.0 145.0
165 174.0 125.0
166 104.0 146.0
167 19.0 106.0
168 99.0 224.0
169 123.0 183.0
170 187.0 113.0
171 86.0 224.0
172 148.0 108.0
173 59.0 162.0
174 180.0 176.0
175 213.0 116.0
176 80.0 99.0
177 118.0 185.0
178 219.0 38.0
179 32.0 136.0
180 189.0 123.0
181 38.0 48.0
182 72.0 197.0
183 212.0 200.0
184 63.0 169.0
185 197.0 188.0
186 230.0 140.0
187 229.0 117.0
188 61.0 188.0
189 117.0 84.0
190 187.0 89.0
191 180.0 204.0
192 153.0 15.0
193 163.0 85.0
194 55.0 46.0
195 11.0 111.0
196 214.0 210.0
197 146.0 176.0
198 194.0 129.0
199 47.0 32.0
200 178.0 11.0
201 91.0 184.0
202 33.0 43.0
203 22.0 148.0
204 174.0 97.0
205 222.0 191.0
206 46.0 221.0
207 77.0 81.0
208 38.0 136.0
209 12.0 53.0
210 88.0 128.0
211 209.0 20.0
212 198.0 128.0
213 125.0 220.0
214 29.0 96.0
215 25.0 150.0
216 216.0 37.0
217 112.0 202.0
218 7.0 170.0
219 130.0 16.0
220 155.0 147.0
221 60.0 186.0
222 112.0 74.0
223 51.0 198.0
224 80.0 169.0
225 224.0 116.0
226 1.0 50.0
227 98.0 170.0
228 80.0 70.0
229 91.0 107.0
230 158.0 209.0
EOF





